MARKOV
739
 2 2 2 2 2 2 2 2 2 2 2 2 2 2 2 2 2 2 2 2 2 2 2 2 2 2 2 2 2 2 2 2 2 2 2 2 2 2 2 2 2 2 2 2 2 2 2 2 2 2 2 2 2 2 2 2 2 2 2 2 2 2 2 2 2 2 2 2 2 2 2 2 2 2 2 2 2 2 2 2 2 2 2 2 2 2 2 2 2 2 2 2 2 2 2 2 2 2 2 2 2 2 2 2 2 2 2 2 2 2 2 2 2 2 2 2 2 2 2 2 2 2 2 2 2 2 2 2 2 2 2 2 2 2 2 2 2 2 2 2 2 2 2 2 2 2 2 2 2 2 2 2 2 2 2 2 2 2 2 2 2 2 2 2 2 2 2 2 2 2 2 2 2 2 2 2 2 2 2 2 2 2 2 2 2 2 2 2 2 2 2 2 2 2 2 2 2 2 2 2 2 2 2 2 2 2 2 2 2 2 2 2 2 2 2 2 2 2 2 2 2 2 2 2 2 2 2 2 2 2 2 2 2 2 2 2 2 2 2 2 2 2 2 2 2 2 2 2 2 2 2 2 2 2 2 2 2 2 2 2 2 2 2 2 2 2 2 2 2 2 2 2 2 2 2 2 2 2 2 2 2 2 2 2 2 2 2 2 2 2 2 2 2 2 2 2 2 2 2 2 2 2 2 2 2 2 2 2 2 2 2 2 2 2 2 2 2 2 2 2 2 2 2 2 2 2 2 2 2 2 2 2 2 2 2 2 2 2 2 2 2 2 2 2 2 2 2 2 2 2 2 2 2 2 2 2 2 2 2 2 2 2 2 2 2 2 2 2 2 2 2 2 2 2 2 2 2 2 2 2 2 2 2 2 2 2 2 2 2 2 2 2 2 2 2 2 2 2 2 2 2 2 2 2 2 2 2 2 2 2 2 2 2 2 2 2 2 2 2 2 2 2 2 2 2 2 2 2 2 2 2 2 2 2 2 2 2 2 2 2 2 2 2 2 2 2 2 2 2 2 2 2 2 2 2 2 2 2 2 2 2 2 2 2 2 2 2 2 2 2 2 2 2 2 2 2 2 2 2 2 2 2 2 2 2 2 2 2 2 2 2 2 2 2 2 2 2 2 2 2 2 2 2 2 2 2 2 2 2 2 2 2 2 2 2 2 2 2 2 2 2 2 2 2 2 2 2 2 2 2 2 2 2 2 2 2 2 2 2 2 2 2 2 2 2 2 2 2 2 2 2 2 2 2 2 2 2 2 2 2 2 2 2 2 2 2 2 2 2 2 2 2 2 2 2 2 2 2 2 2 2 2 2 2 2 2 2 2 2 2 2 2 2 2 2 2 2 2 2 2 2 2 2 2 2 2 2 2 2 2 2 2 2 2 2 2 2 2 2 2 2 2 2 2 2 2 2 2 2 2 2 2 2 2 2 2 2 2 2 2 2 2 2 2 2 2 2 2 2 2 2 2 2 2 2 2 2 2 2 2 2 2 2 2 2 2 2 2 2 2 2 2 2 2 2 2 2 2 2 2 2 2 2 2 2 2 2 2 2 2 2 2 2 2 2 2 2 2 2 2 2 2 2 2 2 2 2 2 2 2 2 2 2 2 2 2 2 2 2 2 2 2 2 2 2 2 2 2 2 2 2 2 2 2 2 2 2 2 2
751
3	97 214 738 
3	84 737 738 
3	252 736 737 
3	95 735 736 
3	58 734 735 
3	68 733 734 
3	81 732 733 
3	5 731 732 
3	98 730 731 
3	233 729 730 
3	205 728 729 
3	40 727 728 
3	204 726 727 
3	229 725 726 
3	20 724 725 
3	75 723 724 
3	102 722 723 
3	144 721 722 
3	96 720 721 
3	101 719 720 
3	246 718 719 
3	57 717 718 
3	189 716 717 
3	33 715 716 
3	110 714 715 
3	200 713 714 
3	216 712 713 
3	3 711 712 
3	147 710 711 
3	130 709 710 
3	178 708 709 
3	231 707 708 
3	149 706 707 
3	109 705 706 
3	125 704 705 
3	141 703 704 
3	203 702 703 
3	27 701 702 
3	11 700 701 
3	79 699 700 
3	167 698 699 
3	202 697 698 
3	52 696 697 
3	131 695 696 
3	128 694 695 
3	243 693 694 
3	0 692 693 
3	94 691 692 
3	143 690 691 
1	690 
3	86 171 689 
3	245 688 689 
3	207 687 688 
1	687 
3	50 97 686 
3	199 685 686 
3	126 684 685 
3	95 683 684 
3	98 682 683 
3	23 681 682 
3	181 680 681 
3	106 679 680 
3	54 678 679 
3	197 677 678 
3	45 676 677 
3	123 675 676 
3	139 674 675 
3	204 673 674 
3	150 672 673 
3	31 671 672 
3	40 670 671 
3	77 669 670 
3	102 668 669 
3	93 667 668 
3	46 666 667 
3	96 665 666 
3	100 664 665 
3	13 663 664 
3	246 662 663 
3	38 661 662 
3	189 660 661 
3	253 659 660 
3	200 658 659 
3	71 657 658 
3	70 656 657 
3	12 655 656 
3	146 654 655 
3	22 653 654 
3	220 652 653 
3	17 651 652 
3	51 650 651 
3	225 649 650 
3	59 648 649 
3	104 647 648 
3	85 646 647 
3	4 645 646 
3	180 644 645 
3	237 643 644 
3	158 642 643 
3	34 641 642 
3	227 640 641 
3	27 639 640 
3	37 638 639 
3	61 637 638 
3	11 636 637 
3	167 635 636 
3	185 634 635 
3	156 633 634 
3	6 632 633 
3	90 631 632 
3	2 630 631 
3	127 629 630 
3	60 628 629 
3	88 627 628 
3	169 626 627 
3	42 625 626 
3	183 624 625 
3	32 623 624 
3	243 622 623 
3	153 621 622 
3	94 620 621 
3	165 619 620 
3	248 618 619 
3	198 617 618 
1	617 
3	118 190 616 
3	97 615 616 
3	1 614 615 
3	195 613 614 
3	163 612 613 
3	235 611 612 
3	117 610 611 
3	170 609 610 
3	39 608 609 
3	254 607 608 
3	251 606 607 
3	224 605 606 
3	238 604 605 
3	241 603 604 
3	83 602 603 
3	189 601 602 
3	157 600 601 
3	70 599 600 
3	12 598 599 
3	215 597 598 
3	188 596 597 
3	232 595 596 
3	18 594 595 
3	209 593 594 
3	177 592 593 
3	239 591 592 
3	134 590 591 
3	72 589 590 
3	149 588 589 
3	244 587 588 
3	211 586 587 
3	103 585 586 
3	206 584 585 
3	89 583 584 
3	11 582 583 
3	140 581 582 
3	166 580 581 
3	133 579 580 
3	145 578 579 
3	221 577 578 
3	226 576 577 
3	94 575 576 
3	132 574 575 
3	194 573 574 
3	176 572 573 
3	214 571 572 
3	142 570 571 
3	95 569 570 
3	187 568 569 
3	98 567 568 
3	23 566 567 
3	26 565 566 
3	91 564 565 
3	99 563 564 
3	234 562 563 
3	174 561 562 
3	148 560 561 
3	113 559 560 
3	162 558 559 
3	56 557 558 
3	246 556 557 
3	9 555 556 
3	216 554 555 
3	155 553 554 
3	172 552 553 
3	135 551 552 
3	146 550 551 
3	173 549 550 
3	250 548 549 
3	87 547 548 
3	129 546 547 
3	62 545 546 
3	196 544 545 
3	192 543 544 
3	14 542 543 
3	10 541 542 
3	48 540 541 
3	112 539 540 
3	213 538 539 
3	107 537 538 
3	153 536 537 
3	152 535 536 
3	161 534 535 
3	55 533 534 
3	137 532 533 
1	532 
3	86 245 531 
1	531 
3	65 75 530 
3	8 529 530 
3	108 528 529 
3	241 527 528 
3	19 526 527 
3	80 525 526 
3	159 524 525 
3	87 523 524 
3	222 522 523 
3	116 521 522 
3	245 520 521 
3	107 519 520 
3	91 518 519 
3	7 517 518 
3	43 516 517 
3	53 515 516 
3	173 514 515 
3	249 513 514 
1	513 
3	97 118 512 
3	195 511 512 
3	1 510 511 
3	163 509 510 
3	142 508 509 
3	187 507 508 
3	170 506 507 
3	106 505 506 
3	99 504 505 
3	91 503 504 
3	43 502 503 
3	251 501 502 
3	234 500 501 
3	175 499 500 
3	28 498 499 
3	123 497 498 
3	218 496 497 
3	74 495 496 
3	238 494 495 
3	174 493 494 
3	148 492 493 
3	241 491 492 
3	67 490 491 
3	83 489 490 
3	159 488 489 
3	162 487 488 
3	56 486 487 
3	155 485 486 
3	215 484 485 
3	173 483 484 
3	232 482 483 
3	18 481 482 
3	209 480 481 
3	177 479 480 
3	108 478 479 
3	231 477 478 
3	134 476 477 
3	129 475 476 
3	211 474 475 
3	89 473 474 
3	196 472 473 
3	192 471 472 
3	14 470 471 
3	10 469 470 
3	8 468 469 
3	48 467 468 
3	80 466 467 
3	217 465 466 
3	136 464 465 
3	145 463 464 
3	245 462 463 
3	112 461 462 
3	221 460 461 
3	107 459 460 
3	152 458 459 
3	161 457 458 
3	198 456 457 
3	137 455 456 
1	455 
3	7 86 454 
3	245 453 454 
3	28 452 453 
1	452 
3	65 75 451 
3	8 450 451 
3	108 449 450 
3	241 448 449 
3	19 447 448 
3	80 446 447 
3	87 445 446 
3	159 444 445 
3	222 443 444 
3	116 442 443 
3	245 441 442 
3	107 440 441 
3	91 439 440 
3	7 438 439 
3	43 437 438 
3	53 436 437 
3	173 435 436 
3	249 434 435 
3	218 433 434 
1	433 
3	74 217 432 
3	187 431 432 
3	251 430 431 
1	430 
3	190 195 429 
3	63 428 429 
3	81 427 428 
3	223 426 427 
3	106 425 426 
3	39 424 425 
3	44 423 424 
3	251 422 423 
3	82 421 422 
3	238 420 421 
3	164 419 420 
3	138 418 419 
3	100 417 418 
3	33 416 417 
3	122 415 416 
3	114 414 415 
3	25 413 414 
3	191 412 413 
3	215 411 412 
3	232 410 411 
3	209 409 410 
3	177 408 409 
3	134 407 408 
3	231 406 407 
3	219 405 406 
3	72 404 405 
3	227 403 404 
3	211 402 403 
3	86 401 402 
3	103 400 401 
3	90 399 400 
3	217 398 399 
3	80 397 398 
3	49 396 397 
3	16 395 396 
3	94 394 395 
3	132 393 394 
3	212 392 393 
3	95 391 392 
3	222 390 391 
3	179 389 390 
3	36 388 389 
3	66 387 388 
3	187 386 387 
3	98 385 386 
3	247 384 385 
3	78 383 384 
3	69 382 383 
3	99 381 382 
3	45 380 381 
3	234 379 380 
3	123 378 379 
3	139 377 378 
3	228 376 377 
3	74 375 376 
3	75 374 375 
3	148 373 374 
3	67 372 373 
3	13 371 372 
3	124 370 371 
3	57 369 370 
3	56 368 369 
3	240 367 368 
3	208 366 367 
3	200 365 366 
3	172 364 365 
3	22 363 364 
3	53 362 363 
3	7 361 362 
3	173 360 361 
3	51 359 360 
3	130 358 359 
3	65 357 358 
3	178 356 357 
3	21 355 356 
3	87 354 355 
3	111 353 354 
3	203 352 353 
3	230 351 352 
3	192 350 351 
3	79 349 350 
3	10 348 349 
3	154 347 348 
3	60 346 347 
3	52 345 346 
3	151 344 345 
3	112 343 344 
3	107 342 343 
3	236 341 342 
3	92 340 341 
3	198 339 340 
3	168 338 339 
3	118 337 338 
3	121 336 337 
3	97 335 336 
3	50 334 335 
3	1 333 334 
3	163 332 333 
3	235 331 332 
3	58 330 331 
3	35 329 330 
3	170 328 329 
3	233 327 328 
3	43 326 327 
3	197 325 326 
3	242 324 325 
3	28 323 324 
3	218 322 323 
3	241 321 322 
3	159 320 321 
3	83 319 320 
3	189 318 319 
3	115 317 318 
3	220 316 317 
3	186 315 316 
3	225 314 315 
3	18 313 314 
3	64 312 313 
3	109 311 312 
3	182 310 311 
3	244 309 310 
3	160 308 309 
3	30 307 308 
3	119 306 307 
3	206 305 306 
3	89 304 305 
3	140 303 304 
3	185 302 303 
3	166 301 302 
3	136 300 301 
3	133 299 300 
3	145 298 299 
3	116 297 298 
3	73 296 297 
3	245 295 296 
3	184 294 295 
3	221 293 294 
3	194 292 293 
3	105 291 292 
3	210 290 291 
3	214 289 290 
3	120 288 289 
3	142 287 288 
3	252 286 287 
3	193 285 286 
3	5 284 285 
3	23 283 284 
3	29 282 283 
3	26 281 282 
3	91 280 281 
3	175 279 280 
3	229 278 279 
3	174 277 278 
3	19 276 277 
3	162 275 276 
3	246 274 275 
3	201 273 274 
3	155 272 273 
3	135 271 272 
3	108 270 271 
3	250 269 270 
3	129 268 269 
3	76 267 268 
3	47 266 267 
3	41 265 266 
3	196 264 265 
3	15 263 264 
3	14 262 263 
3	8 261 262 
3	48 260 261 
3	24 259 260 
3	152 258 259 
3	161 257 258 
3	55 256 257 
3	137 255 256 
1	255 
1	190 
1	195 
1	126 
1	63 
1	81 
1	181 
1	223 
1	39 
1	106 
1	54 
1	44 
1	251 
1	224 
1	204 
1	150 
1	82 
1	238 
1	164 
1	138 
1	144 
1	96 
1	100 
1	33 
1	122 
1	114 
1	25 
1	215 
1	191 
1	188 
1	232 
1	209 
1	177 
1	134 
1	231 
1	171 
1	219 
1	72 
1	34 
1	227 
1	211 
1	86 
1	103 
1	11 
1	90 
1	127 
1	169 
1	80 
1	217 
1	49 
1	16 
1	243 
1	226 
1	94 
1	132 
1	248 
1	212 
1	176 
1	249 
1	95 
1	222 
1	36 
1	179 
1	66 
1	247 
1	98 
1	187 
1	78 
1	69 
1	99 
1	45 
1	205 
1	234 
1	123 
1	228 
1	139 
1	74 
1	75 
1	93 
1	148 
1	67 
1	13 
1	124 
1	57 
1	56 
1	240 
1	208 
1	200 
1	216 
1	9 
1	71 
1	172 
1	146 
1	22 
1	7 
1	53 
1	173 
1	51 
1	130 
1	59 
1	65 
1	178 
1	104 
1	21 
1	87 
1	237 
1	125 
1	141 
1	203 
1	111 
1	37 
1	230 
1	79 
1	192 
1	156 
1	6 
1	10 
1	154 
1	60 
1	52 
1	128 
1	151 
1	112 
1	32 
1	236 
1	107 
1	92 
1	198 
1	168 
1	118 
1	121 
1	97 
1	1 
1	50 
1	163 
1	84 
1	235 
1	58 
1	68 
1	117 
1	35 
1	233 
1	170 
1	254 
1	43 
1	197 
1	242 
1	28 
1	218 
1	40 
1	20 
1	77 
1	102 
1	241 
1	83 
1	159 
1	38 
1	189 
1	157 
1	253 
1	70 
1	12 
1	115 
1	220 
1	147 
1	186 
1	225 
1	18 
1	239 
1	64 
1	149 
1	182 
1	109 
1	207 
1	244 
1	160 
1	27 
1	119 
1	30 
1	206 
1	89 
1	140 
1	167 
1	185 
1	166 
1	88 
1	42 
1	136 
1	133 
1	131 
1	73 
1	145 
1	116 
1	245 
1	183 
1	184 
1	221 
1	194 
1	105 
1	210 
1	214 
1	120 
1	142 
1	199 
1	252 
1	193 
1	5 
1	23 
1	29 
1	26 
1	91 
1	175 
1	229 
1	31 
1	174 
1	46 
1	19 
1	113 
1	101 
1	246 
1	162 
1	201 
1	110 
1	155 
1	135 
1	17 
1	3 
1	250 
1	108 
1	129 
1	85 
1	76 
1	62 
1	4 
1	180 
1	47 
1	158 
1	41 
1	61 
1	196 
1	15 
1	14 
1	8 
1	202 
1	2 
1	48 
1	213 
1	0 
1	24 
1	153 
1	165 
1	152 
1	161 
1	55 
1	143 
1	137 
0	

8
 1 0 0.5 0.5 0.2 0.8 0.1 0.9
8
 1 0 0 1 0.6 0 0.4 1
8
 1 0 0 1 0.4 0 0.6 1
8
 1 0 0 1 0.5 0 0.5 1
8
 1 0 0 1 0.4 0 0.6 1
8
 1 0 0 1 0.5 0 0.5 1
8
 1 0 0 1 0.4 0 0.6 1
8
 1 0 0 1 0.1 0 0.9 1
8
 1 0 0 1 0.5 0 0.5 1
8
 1 0 0 1 0.4 0 0.6 1
8
 1 0 0 1 0.5 0 0.5 1
8
 1 0 0 1 0.2 0 0.8 1
8
 1 0 0 1 0.5 0 0.5 1
8
 1 0 0 1 0.4 0 0.6 1
8
 1 0 0 1 0.1 0 0.9 1
8
 1 0 0 1 0.75 0 0.25 1
8
 1 0 0 1 0.2 0 0.8 1
8
 1 0 0 1 0.1 0 0.9 1
8
 1 0 0 1 0.5 0 0.5 1
8
 1 0 0 1 0.5 0 0.5 1
8
 1 0 0 1 0.2 0 0.8 1
8
 1 0 0 1 0.9 0 0.1 1
8
 1 0 0 1 0.5 0 0.5 1
8
 1 0 0 1 0.4 0 0.6 1
8
 1 0 0 1 0.5 0 0.5 1
8
 1 0 0 1 0.2 0 0.8 1
8
 1 0 0 1 0.5 0 0.5 1
8
 1 0 0 1 0.5 0 0.5 1
8
 1 0 0 1 0.5 0 0.5 1
8
 1 0 0 1 0.4 0 0.6 1
8
 1 0 0 1 0.89 0 0.11 1
8
 1 0 0 1 0.5 0 0.5 1
8
 1 0 0 1 0.5 0 0.5 1
8
 1 0 0 1 0.9 0 0.1 1
8
 1 0 0 1 0.1 0 0.9 1
8
 1 0 0 1 0.1 0 0.9 1
8
 1 0 0 1 0.4 0 0.6 1
8
 1 0 0 1 0.2 0 0.8 1
8
 1 0 0 1 0.4 0 0.6 1
8
 1 0 0 1 0.5 0 0.5 1
8
 1 0 0 1 0.2 0 0.8 1
8
 1 0 0 1 0.2 0 0.8 1
8
 1 0 0 1 0.4 0 0.6 1
8
 1 0 0 1 0.5 0 0.5 1
8
 1 0 0 1 0.1 0 0.9 1
8
 1 0 0 1 0.05 0 0.95 1
8
 1 0 0 1 0.6 0 0.4 1
8
 1 0 0 1 0.5 0 0.5 1
8
 1 0 0 1 0.5 0 0.5 1
2
 0.03 1
8
 1 0 0.5 0.5 0.3 0.7 0.15 0.85
8
 1 0 0 1 0.05 0 0.95 1
8
 1 0 0 1 0.5 0 0.5 1
2
 0.03 1
8
 1 0 0.1 0.9 0.5 0.5 0.05 0.95
8
 1 0 0 1 0.5 0 0.5 1
8
 1 0 0 1 0.1 0 0.9 1
8
 1 0 0 1 0.1 0 0.9 1
8
 1 0 0 1 0.1 0 0.9 1
8
 1 0 0 1 0.09 0 0.91 1
8
 1 0 0 1 0.5 0 0.5 1
8
 1 0 0 1 0.01 0 0.99 1
8
 1 0 0 1 0.95 0 0.05 1
8
 1 0 0 1 0.5 0 0.5 1
8
 1 0 0 1 0.19 0 0.81 1
8
 1 0 0 1 0.01 0 0.99 1
8
 1 0 0 1 0.01 0 0.99 1
8
 1 0 0 1 0.09 0 0.91 1
8
 1 0 0 1 0.5 0 0.5 1
8
 1 0 0 1 0.01 0 0.99 1
8
 1 0 0 1 0.1 0 0.9 1
8
 1 0 0 1 0.05 0 0.95 1
8
 1 0 0 1 0.1 0 0.9 1
8
 1 0 0 1 0.19 0 0.81 1
8
 1 0 0 1 0.19 0 0.81 1
8
 1 0 0 1 0.1 0 0.9 1
8
 1 0 0 1 0.05 0 0.95 1
8
 1 0 0 1 0.5 0 0.5 1
8
 1 0 0 1 0.05 0 0.95 1
8
 1 0 0 1 0.01 0 0.99 1
8
 1 0 0 1 0.5 0 0.5 1
8
 1 0 0 1 0.2 0 0.8 1
8
 1 0 0 1 0.1 0 0.9 1
8
 1 0 0 1 0.5 0 0.5 1
8
 1 0 0 1 0.5 0 0.5 1
8
 1 0 0 1 0.95 0 0.05 1
8
 1 0 0 1 0.89 0 0.11 1
8
 1 0 0 1 0.5 0 0.5 1
8
 1 0 0 1 0.5 0 0.5 1
8
 1 0 0 1 0.01 0 0.99 1
8
 1 0 0 1 0.5 0 0.5 1
8
 1 0 0 1 0.2 0 0.8 1
8
 1 0 0 1 0.5 0 0.5 1
8
 1 0 0 1 0.5 0 0.5 1
8
 1 0 0 1 0.09 0 0.91 1
8
 1 0 0 1 0.19 0 0.81 1
8
 1 0 0 1 0.5 0 0.5 1
8
 1 0 0 1 0.09 0 0.91 1
8
 1 0 0 1 0.5 0 0.5 1
8
 1 0 0 1 0.59 0 0.41 1
8
 1 0 0 1 0.5 0 0.5 1
8
 1 0 0 1 0.1 0 0.9 1
8
 1 0 0 1 0.1 0 0.9 1
8
 1 0 0 1 0.01 0 0.99 1
8
 1 0 0 1 0.3 0 0.7 1
8
 1 0 0 1 0.1 0 0.9 1
8
 1 0 0 1 0.5 0 0.5 1
8
 1 0 0 1 0.5 0 0.5 1
8
 1 0 0 1 0.19 0 0.81 1
8
 1 0 0 1 0.5 0 0.5 1
8
 1 0 0 1 0.19 0 0.81 1
8
 1 0 0 1 0.09 0 0.91 1
8
 1 0 0 1 0.1 0 0.9 1
8
 1 0 0 1 0.5 0 0.5 1
8
 1 0 0 1 0.5 0 0.5 1
8
 1 0 0 1 0.59 0 0.41 1
8
 1 0 0 1 0.05 0 0.95 1
8
 1 0 0 1 0.19 0 0.81 1
8
 1 0 0 1 0.05 0 0.95 1
8
 1 0 0 1 0.2 0 0.8 1
8
 1 0 0 1 0.1 0 0.9 1
8
 1 0 0 1 0.5 0 0.5 1
8
 1 0 0 1 0.5 0 0.5 1
8
 1 0 0 1 0.1 0 0.9 1
2
 0.03 1
8
 1 0 0.9 0.1 0.05 0.95 0.045 0.955
8
 1 0 0 1 0.9 0 0.1 1
8
 1 0 0 1 0.05 0 0.95 1
8
 1 0 0 1 0.05 0 0.95 1
8
 1 0 0 1 0.05 0 0.95 1
8
 1 0 0 1 0.9 0 0.1 1
8
 1 0 0 1 0.3 0 0.7 1
8
 1 0 0 1 0.1 0 0.9 1
8
 1 0 0 1 0.9 0 0.1 1
8
 1 0 0 1 0.3 0 0.7 1
8
 1 0 0 1 0.05 0 0.95 1
8
 1 0 0 1 0.3 0 0.7 1
8
 1 0 0 1 0.05 0 0.95 1
8
 1 0 0 1 0.05 0 0.95 1
8
 1 0 0 1 0.05 0 0.95 1
8
 1 0 0 1 0.5 0 0.5 1
8
 1 0 0 1 0.3 0 0.7 1
8
 1 0 0 1 0.5 0 0.5 1
8
 1 0 0 1 0.9 0 0.1 1
8
 1 0 0 1 0.05 0 0.95 1
8
 1 0 0 1 0.3 0 0.7 1
8
 1 0 0 1 0.05 0 0.95 1
8
 1 0 0 1 0.05 0 0.95 1
8
 1 0 0 1 0.05 0 0.95 1
8
 1 0 0 1 0.05 0 0.95 1
8
 1 0 0 1 0.5 0 0.5 1
8
 1 0 0 1 0.4 0 0.6 1
8
 1 0 0 1 0.9 0 0.1 1
8
 1 0 0 1 0.5 0 0.5 1
8
 1 0 0 1 0.7 0 0.3 1
8
 1 0 0 1 0.01 0 0.99 1
8
 1 0 0 1 0.9 0 0.1 1
8
 1 0 0 1 0.9 0 0.1 1
8
 1 0 0 1 0.05 0 0.95 1
8
 1 0 0 1 0.4 0 0.6 1
8
 1 0 0 1 0.9 0 0.1 1
8
 1 0 0 1 0.9 0 0.1 1
8
 1 0 0 1 0.75 0 0.25 1
8
 1 0 0 1 0.05 0 0.95 1
8
 1 0 0 1 0.05 0 0.95 1
8
 1 0 0 1 0.3 0 0.7 1
8
 1 0 0 1 0.9 0 0.1 1
8
 1 0 0 1 0.5 0 0.5 1
8
 1 0 0 1 0.9 0 0.1 1
8
 1 0 0 1 0.3 0 0.7 1
8
 1 0 0 1 0.5 0 0.5 1
8
 1 0 0 1 0.05 0 0.95 1
8
 1 0 0 1 0.9 0 0.1 1
8
 1 0 0 1 0.5 0 0.5 1
8
 1 0 0 1 0.9 0 0.1 1
8
 1 0 0 1 0.9 0 0.1 1
8
 1 0 0 1 0.9 0 0.1 1
8
 1 0 0 1 0.05 0 0.95 1
8
 1 0 0 1 0.05 0 0.95 1
8
 1 0 0 1 0.05 0 0.95 1
8
 1 0 0 1 0.05 0 0.95 1
8
 1 0 0 1 0.05 0 0.95 1
8
 1 0 0 1 0.3 0 0.7 1
8
 1 0 0 1 0.05 0 0.95 1
8
 1 0 0 1 0.05 0 0.95 1
8
 1 0 0 1 0.9 0 0.1 1
8
 1 0 0 1 0.3 0 0.7 1
8
 1 0 0 1 0.5 0 0.5 1
8
 1 0 0 1 0.05 0 0.95 1
8
 1 0 0 1 0.1 0 0.9 1
8
 1 0 0 1 0.9 0 0.1 1
8
 1 0 0 1 0.89 0 0.11 1
8
 1 0 0 1 0.05 0 0.95 1
8
 1 0 0 1 0.9 0 0.1 1
8
 1 0 0 1 0.89 0 0.11 1
8
 1 0 0 1 0.05 0 0.95 1
8
 1 0 0 1 0.09 0 0.91 1
8
 1 0 0 1 0.05 0 0.95 1
8
 1 0 0 1 0.02 0 0.98 1
8
 1 0 0 1 0.05 0 0.95 1
8
 1 0 0 1 0.2 0 0.8 1
8
 1 0 0 1 0.05 0 0.95 1
8
 1 0 0 1 0.05 0 0.95 1
8
 1 0 0 1 0.3 0 0.7 1
8
 1 0 0 1 0.05 0 0.95 1
8
 1 0 0 1 0.4 0 0.6 1
8
 1 0 0 1 0.05 0 0.95 1
8
 1 0 0 1 0.05 0 0.95 1
8
 1 0 0 1 0.9 0 0.1 1
8
 1 0 0 1 0.05 0 0.95 1
2
 0.03 1
8
 1 0 0.2 0.8 0.3 0.7 0.06 0.94
2
 0.03 1
8
 1 0 0.57 0.43 0.5 0.5 0.285 0.715
8
 1 0 0 1 0.1 0 0.9 1
8
 1 0 0 1 0 0 1 1
8
 1 0 0 1 0.09 0 0.91 1
8
 1 0 0 1 0.5 0 0.5 1
8
 1 0 0 1 0.1 0 0.9 1
8
 1 0 0 1 0 0 1 1
8
 1 0 0 1 0.5 0 0.5 1
8
 1 0 0 1 0.5 0 0.5 1
8
 1 0 0 1 0.5 0 0.5 1
8
 1 0 0 1 0 0 1 1
8
 1 0 0 1 0.01 0 0.99 1
8
 1 0 0 1 0.5 0 0.5 1
8
 1 0 0 1 0.5 0 0.5 1
8
 1 0 0 1 0 0 1 1
8
 1 0 0 1 0.4 0 0.6 1
8
 1 0 0 1 0.1 0 0.9 1
8
 1 0 0 1 0.01 0 0.99 1
2
 0.03 1
8
 1 0 0 1 0 1 0 1
8
 1 0 0 1 0 0 1 1
8
 1 0 0 1 0 0 1 1
8
 1 0 0 1 0 0 1 1
8
 1 0 0 1 0 0 1 1
8
 1 0 0 1 0 0 1 1
8
 1 0 0 1 0 0 1 1
8
 1 0 0 1 0 0 1 1
8
 1 0 0 1 0 0 1 1
8
 1 0 0 1 0 0 1 1
8
 1 0 0 1 0 0 1 1
8
 1 0 0 1 0 0 1 1
8
 1 0 0 1 0 0 1 1
8
 1 0 0 1 0 0 1 1
8
 1 0 0 1 0 0 1 1
8
 1 0 0 1 0 0 1 1
8
 1 0 0 1 0 0 1 1
8
 1 0 0 1 0 0 1 1
8
 1 0 0 1 0 0 1 1
8
 1 0 0 1 0 0 1 1
8
 1 0 0 1 0 0 1 1
8
 1 0 0 1 0 0 1 1
8
 1 0 0 1 0 0 1 1
8
 1 0 0 1 0 0 1 1
8
 1 0 0 1 0 0 1 1
8
 1 0 0 1 0 0 1 1
8
 1 0 0 1 0 0 1 1
8
 1 0 0 1 0 0 1 1
8
 1 0 0 1 0 0 1 1
8
 1 0 0 1 0 0 1 1
8
 1 0 0 1 0 0 1 1
8
 1 0 0 1 0 0 1 1
8
 1 0 0 1 0 0 1 1
8
 1 0 0 1 0 0 1 1
8
 1 0 0 1 0 0 1 1
8
 1 0 0 1 0 0 1 1
8
 1 0 0 1 0 0 1 1
8
 1 0 0 1 0 0 1 1
8
 1 0 0 1 0 0 1 1
8
 1 0 0 1 0 0 1 1
8
 1 0 0 1 0 0 1 1
8
 1 0 0 1 0 0 1 1
8
 1 0 0 1 0 0 1 1
8
 1 0 0 1 0 0 1 1
8
 1 0 0 1 0 0 1 1
8
 1 0 0 1 0 0 1 1
8
 1 0 0 1 0 0 1 1
8
 1 0 0 1 0 0 1 1
8
 1 0 0 1 0 0 1 1
8
 1 0 0 1 0 0 1 1
8
 1 0 0 1 0 0 1 1
8
 1 0 0 1 0 0 1 1
8
 1 0 0 1 0 0 1 1
8
 1 0 0 1 0 0 1 1
8
 1 0 0 1 0 0 1 1
8
 1 0 0 1 0 0 1 1
8
 1 0 0 1 0 0 1 1
8
 1 0 0 1 0 0 1 1
2
 0.03 1
8
 1 0 0.3 0.7 0.5 0.5 0.15 0.85
8
 1 0 0 1 0 0 1 1
8
 1 0 0 1 0.01 0 0.99 1
2
 0.03 1
8
 1 0 0.57 0.43 0.5 0.5 0.285 0.715
8
 1 0 0 1 0.1 0 0.9 1
8
 1 0 0 1 0.01 0 0.99 1
8
 1 0 0 1 0.09 0 0.91 1
8
 1 0 0 1 0.5 0 0.5 1
8
 1 0 0 1 0.1 0 0.9 1
8
 1 0 0 1 0.5 0 0.5 1
8
 1 0 0 1 0.01 0 0.99 1
8
 1 0 0 1 0.5 0 0.5 1
8
 1 0 0 1 0.5 0 0.5 1
8
 1 0 0 1 0.05 0 0.95 1
8
 1 0 0 1 0.01 0 0.99 1
8
 1 0 0 1 0.5 0 0.5 1
8
 1 0 0 1 0.5 0 0.5 1
8
 1 0 0 1 0.01 0 0.99 1
8
 1 0 0 1 0.4 0 0.6 1
8
 1 0 0 1 0.1 0 0.9 1
8
 1 0 0 1 0.01 0 0.99 1
8
 1 0 0 1 0.2 0 0.8 1
2
 0.03 1
8
 1 0 0 1 0 1 0 1
8
 1 0 0 1 0 0 1 1
8
 1 0 0 1 0 0 1 1
2
 0.03 1
8
 1 0 0 1 0.9 0.1 0 1
8
 1 0 0 1 0.2 0 0.8 1
8
 1 0 0 1 0.4 0 0.6 1
8
 1 0 0 1 0.5 0 0.5 1
8
 1 0 0 1 0 0 1 1
8
 1 0 0 1 0.9 0 0.1 1
8
 1 0 0 1 0.5 0 0.5 1
8
 1 0 0 1 0.89 0 0.11 1
8
 1 0 0 1 0.5 0 0.5 1
8
 1 0 0 1 0 0 1 1
8
 1 0 0 1 0.89 0 0.11 1
8
 1 0 0 1 0.5 0 0.5 1
8
 1 0 0 1 0.2 0 0.8 1
8
 1 0 0 1 0.4 0 0.6 1
8
 1 0 0 1 0.1 0 0.9 1
8
 1 0 0 1 0.5 0 0.5 1
8
 1 0 0 1 0.5 0 0.5 1
8
 1 0 0 1 0.1 0 0.9 1
8
 1 0 0 1 0 0 1 1
8
 1 0 0 1 0.5 0 0.5 1
8
 1 0 0 1 0.01 0 0.99 1
8
 1 0 0 1 0 0 1 1
8
 1 0 0 1 0 0 1 1
8
 1 0 0 1 0 0 1 1
8
 1 0 0 1 0.5 0 0.5 1
8
 1 0 0 1 0.9 0 0.1 1
8
 1 0 0 1 0.5 0 0.5 1
8
 1 0 0 1 0 0 1 1
8
 1 0 0 1 0.5 0 0.5 1
8
 1 0 0 1 0.9 0 0.1 1
8
 1 0 0 1 0.5 0 0.5 1
8
 1 0 0 1 0.1 0 0.9 1
8
 1 0 0 1 0 0 1 1
8
 1 0 0 1 0.1 0 0.9 1
8
 1 0 0 1 0.5 0 0.5 1
8
 1 0 0 1 0.9 0 0.1 1
8
 1 0 0 1 0.5 0 0.5 1
8
 1 0 0 1 0.5 0 0.5 1
8
 1 0 0 1 0.9 0 0.1 1
8
 1 0 0 1 0.09 0 0.91 1
8
 1 0 0 1 0.5 0 0.5 1
8
 1 0 0 1 0.1 0 0.9 1
8
 1 0 0 1 0.5 0 0.5 1
8
 1 0 0 1 0.5 0 0.5 1
8
 1 0 0 1 0.9 0 0.1 1
8
 1 0 0 1 0.09 0 0.91 1
8
 1 0 0 1 0.5 0 0.5 1
8
 1 0 0 1 0.5 0 0.5 1
8
 1 0 0 1 0 0 1 1
8
 1 0 0 1 0.5 0 0.5 1
8
 1 0 0 1 0 0 1 1
8
 1 0 0 1 0 0 1 1
8
 1 0 0 1 0.5 0 0.5 1
8
 1 0 0 1 0.1 0 0.9 1
8
 1 0 0 1 0.5 0 0.5 1
8
 1 0 0 1 0.57 0 0.43 1
8
 1 0 0 1 0 0 1 1
8
 1 0 0 1 0 0 1 1
8
 1 0 0 1 0.5 0 0.5 1
8
 1 0 0 1 0.5 0 0.5 1
8
 1 0 0 1 0.9 0 0.1 1
8
 1 0 0 1 0 0 1 1
8
 1 0 0 1 0.5 0 0.5 1
8
 1 0 0 1 0.1 0 0.9 1
8
 1 0 0 1 0.5 0 0.5 1
8
 1 0 0 1 0.1 0 0.9 1
8
 1 0 0 1 0.5 0 0.5 1
8
 1 0 0 1 0.4 0 0.6 1
8
 1 0 0 1 0.5 0 0.5 1
8
 1 0 0 1 0 0 1 1
8
 1 0 0 1 0.5 0 0.5 1
8
 1 0 0 1 0.9 0 0.1 1
8
 1 0 0 1 0.5 0 0.5 1
8
 1 0 0 1 0.89 0 0.11 1
8
 1 0 0 1 0.5 0 0.5 1
8
 1 0 0 1 0.5 0 0.5 1
8
 1 0 0 1 0.5 0 0.5 1
8
 1 0 0 1 0.4 0 0.6 1
8
 1 0 0 1 0.5 0 0.5 1
8
 1 0 0 1 0 0 1 1
8
 1 0 0 1 0.1 0 0.9 1
8
 1 0 0 1 0.6 0 0.4 1
8
 1 0 0 1 0.5 0 0.5 1
8
 1 0 0 1 0.1 0 0.9 1
8
 1 0 0 1 0.4 0 0.6 1
8
 1 0 0 1 0.5 0 0.5 1
8
 1 0 0 1 0 0 1 1
8
 1 0 0 1 0 0 1 1
8
 1 0 0 1 0.1 0 0.9 1
8
 1 0 0 1 0.59 0 0.41 1
8
 1 0 0 1 0 0 1 1
8
 1 0 0 1 0.4 0 0.6 1
8
 1 0 0 1 0 0 1 1
8
 1 0 0 1 0.5 0 0.5 1
8
 1 0 0 1 0.9 0 0.1 1
8
 1 0 0 1 0.5 0 0.5 1
8
 1 0 0 1 0 0 1 1
8
 1 0 0 1 0 0 1 1
8
 1 0 0 1 0.9 0 0.1 1
8
 1 0 0 1 0.4 0 0.6 1
8
 1 0 0 1 0.5 0 0.5 1
8
 1 0 0 1 0.1 0 0.9 1
8
 1 0 0 1 0.4 0 0.6 1
8
 1 0 0 1 0 0 1 1
8
 1 0 0 1 0.5 0 0.5 1
8
 1 0 0 1 0.09 0 0.91 1
8
 1 0 0 1 0 0 1 1
8
 1 0 0 1 0 0 1 1
8
 1 0 0 1 0 0 1 1
8
 1 0 0 1 0 0 1 1
8
 1 0 0 1 0 0 1 1
8
 1 0 0 1 0.5 0 0.5 1
8
 1 0 0 1 0.5 0 0.5 1
8
 1 0 0 1 0.5 0 0.5 1
8
 1 0 0 1 0.5 0 0.5 1
8
 1 0 0 1 0.5 0 0.5 1
8
 1 0 0 1 0 0 1 1
8
 1 0 0 1 0.5 0 0.5 1
8
 1 0 0 1 0.4 0 0.6 1
8
 1 0 0 1 0.5 0 0.5 1
8
 1 0 0 1 0.7 0 0.3 1
8
 1 0 0 1 0.5 0 0.5 1
8
 1 0 0 1 0.89 0 0.11 1
8
 1 0 0 1 0.5 0 0.5 1
8
 1 0 0 1 0.9 0 0.1 1
8
 1 0 0 1 0 0 1 1
8
 1 0 0 1 0.9 0 0.1 1
8
 1 0 0 1 0.5 0 0.5 1
8
 1 0 0 1 0.5 0 0.5 1
8
 1 0 0 1 0 0 1 1
8
 1 0 0 1 0.75 0 0.25 1
8
 1 0 0 1 0 0 1 1
8
 1 0 0 1 0.09 0 0.91 1
8
 1 0 0 1 0.5 0 0.5 1
8
 1 0 0 1 0 0 1 1
8
 1 0 0 1 0.5 0 0.5 1
8
 1 0 0 1 0 0 1 1
8
 1 0 0 1 0.9 0 0.1 1
8
 1 0 0 1 0.7 0 0.3 1
8
 1 0 0 1 0.4 0 0.6 1
8
 1 0 0 1 0.5 0 0.5 1
8
 1 0 0 1 0.1 0 0.9 1
8
 1 0 0 1 0 0 1 1
8
 1 0 0 1 0.6 0 0.4 1
8
 1 0 0 1 0.5 0 0.5 1
8
 1 0 0 1 0.4 0 0.6 1
8
 1 0 0 1 0.9 0 0.1 1
8
 1 0 0 1 0.5 0 0.5 1
8
 1 0 0 1 0.9 0 0.1 1
8
 1 0 0 1 0 0 1 1
8
 1 0 0 1 0 0 1 1
8
 1 0 0 1 0.4 0 0.6 1
8
 1 0 0 1 0 0 1 1
8
 1 0 0 1 0.09 0 0.91 1
8
 1 0 0 1 0 0 1 1
8
 1 0 0 1 0.9 0 0.1 1
8
 1 0 0 1 0.5 0 0.5 1
8
 1 0 0 1 0 0 1 1
8
 1 0 0 1 0.9 0 0.1 1
8
 1 0 0 1 0 0 1 1
8
 1 0 0 1 0.9 0 0.1 1
8
 1 0 0 1 0 0 1 1
8
 1 0 0 1 0.05 0 0.95 1
8
 1 0 0 1 0.5 0 0.5 1
8
 1 0 0 1 0.5 0 0.5 1
8
 1 0 0 1 0 0 1 1
8
 1 0 0 1 0.5 0 0.5 1
8
 1 0 0 1 0 0 1 1
8
 1 0 0 1 0.1 0 0.9 1
8
 1 0 0 1 0 0 1 1
8
 1 0 0 1 0.5 0 0.5 1
8
 1 0 0 1 0 0 1 1
8
 1 0 0 1 0 0 1 1
8
 1 0 0 1 0.9 0 0.1 1
8
 1 0 0 1 0.01 0 0.99 1
2
 0.03 1
2
 0.9995 0.0005
2
 0.99995 5e-05
2
 0.99968 0.00032
2
 0.999995 5e-06
2
 0.9999 0.0001
2
 0.9986 0.0014
2
 0.99999 1e-05
2
 0.99975 0.00025
2
 0.99 0.01
2
 0.9998 0.0002
2
 0.99999 1e-05
2
 0.99995 5e-05
2
 0.9999 0.0001
2
 0.9998 0.0002
2
 0.99991 9e-05
2
 0.99999 1e-05
2
 0.9999 0.0001
2
 0.9999 0.0001
2
 0.99975 0.00025
2
 0.999998 2e-06
2
 0.9999 0.0001
2
 0.9999 0.0001
2
 0.9999 0.0001
2
 0.999999 1e-06
2
 0.99989 0.00011
2
 0.9999 0.0001
2
 0.9999 0.0001
2
 0.9999 0.0001
2
 0.9999 0.0001
2
 0.99998 2e-05
2
 0.99999 1e-05
2
 0.9999 0.0001
2
 0.99995 5e-05
2
 0.998 0.002
2
 0.99992 8e-05
2
 0.99974 0.00026
2
 0.999998 2e-06
2
 0.999999 1e-06
2
 0.99989 0.00011
2
 0.99995 5e-05
2
 0.9999 0.0001
2
 0.99996 4e-05
2
 0.99982 0.00018
2
 0.99981 0.00019
2
 0.99996 4e-05
2
 0.9999 0.0001
2
 0.99998 2e-05
2
 0.9999 0.0001
2
 0.9999 0.0001
2
 0.9999 0.0001
2
 0.9999 0.0001
2
 0.9991 0.0009
2
 0.99992 8e-05
2
 0.9999 0.0001
2
 0.9995 0.0005
2
 0.99999 1e-05
2
 0.9999 0.0001
2
 0.99998 2e-05
2
 0.9996 0.0004
2
 0.99996 4e-05
2
 0.9999 0.0001
2
 0.99995 5e-05
2
 0.9995 0.0005
2
 0.99995 5e-05
2
 0.999973 2.7e-05
2
 0.99999 1e-05
2
 0.99999 1e-05
2
 0.9999 0.0001
2
 0.9999 0.0001
2
 0.99982 0.00018
2
 0.999999 1e-06
2
 0.9999 0.0001
2
 0.995 0.005
2
 0.9999 0.0001
2
 0.99995 5e-05
2
 0.99985 0.00015
2
 0.9999 0.0001
2
 0.99991 9e-05
2
 0.9996 0.0004
2
 0.99998 2e-05
2
 0.99999 1e-05
2
 0.9999 0.0001
2
 0.9998 0.0002
2
 0.9999 0.0001
2
 0.9995 0.0005
2
 0.99999 1e-05
2
 0.9995 0.0005
2
 0.99922 0.00078
2
 0.9997 0.0003
2
 0.9994 0.0006
2
 0.9998 0.0002
2
 0.99993 7e-05
2
 0.9991 0.0009
2
 0.99995 5e-05
2
 0.9998 0.0002
2
 0.9998 0.0002
2
 0.9998 0.0002
2
 0.9994 0.0006
2
 0.99995 5e-05
2
 0.99999 1e-05
2
 0.9999 0.0001
2
 0.9999 0.0001
2
 0.9995 0.0005
2
 0.9999 0.0001
2
 0.9995 0.0005
2
 0.99996 4e-05
2
 0.9998 0.0002
2
 0.9999 0.0001
2
 0.9997 0.0003
2
 0.9995 0.0005
2
 0.99984 0.00016
2
 0.9996 0.0004
2
 0.99993 7e-05
2
 0.9999 0.0001
2
 0.9999 0.0001
2
 0.99997 3e-05
2
 0.999 0.001
2
 0.9999 0.0001
2
 0.996 0.004
2
 0.9996 0.0004
2
 0.9999 0.0001
2
 0.9999 0.0001
2
 0.999 0.001
2
 0.99995 5e-05
2
 0.99998 2e-05
2
 0.9965 0.0035
2
 0.9999 0.0001
2
 0.9928 0.0072
2
 0.9999 0.0001
2
 0.99996 4e-05
2
 0.99985 0.00015
2
 0.9999 0.0001
2
 0.9999 0.0001
2
 0.9999 0.0001
2
 0.9995 0.0005
2
 0.999977 2.291e-05
2
 0.996 0.004
2
 0.999999 1e-06
2
 0.9991 0.0009
2
 0.99989 0.00011
2
 0.9999 0.0001
2
 0.99995 5e-05
2
 1 2e-07
2
 0.99975 0.00025
2
 0.9988 0.0012
2
 0.99995 5e-05
2
 0.994 0.006
2
 0.99987 0.00013
2
 0.9999 0.0001
2
 0.9999 0.0001
2
 0.9997 0.0003
2
 0.999999 6.2e-07
2
 0.99995 5e-05
2
 0.99998 2e-05
2
 0.9999 0.0001
2
 0.99974 0.00026
2
 1 1.2e-07
2
 0.999 0.001
2
 0.9995 0.0005
2
 0.9996 0.0004
2
 0.997 0.003
2
 0.99995 5e-05
2
 0.9999 0.0001
2
 0.999997 2.82e-06
2
 0.99998 2e-05
2
 0.99999 1e-05
2
 0.9999 0.0001
2
 0.9995 0.0005
2
 0.9999 0.0001
2
 0.9999 0.0001
2
 0.9995 0.0005
2
 0.999996 4e-06
2
 0.9999 0.0001
2
 1 1.6e-07
2
 0.9999 0.0001
2
 0.9994 0.0006
2
 0.9999 0.0001
2
 0.9999 0.0001
2
 0.999907 9.332e-05
2
 0.9999 0.0001
2
 0.9994 0.0006
2
 0.99989 0.00011
2
 0.9999 0.0001
2
 0.999969 3.12e-05
2
 0.999999 1e-06
2
 0.9992 0.0008
2
 0.99995 5e-05
2
 0.999992 8e-06
2
 0.99975 0.00025
2
 0.9999 0.0001
2
 0.9999 0.0001
2
 0.99975 0.00025
2
 0.9646 0.0354
2
 0.9999 0.0001
2
 0.99999 1e-05
2
 0.9999 0.0001
2
 0.99999 1e-05
2
 0.9998 0.0002
2
 0.9999 0.0001
2
 0.99998 2e-05
2
 0.9999 0.0001
2
 0.9999 0.0001
2
 0.99999 1e-05
2
 0.9995 0.0005
2
 0.9995 0.0005
2
 0.99991 9e-05
2
 0.99991 9e-05
2
 0.9999 0.0001
2
 0.9999 0.0001
2
 0.99995 5e-05
2
 0.99997 3e-05
2
 0.9995 0.0005
2
 0.9999 0.0001
2
 0.99995 5e-05
2
 0.9999 0.0001
2
 0.99994 6e-05
2
 0.998 0.002
2
 0.9979 0.0021
2
 0.9998 0.0002
2
 0.9999 0.0001
2
 0.9999 0.0001
2
 0.999999 1e-06
2
 0.99997 3e-05
2
 0.9999 0.0001
2
 0.99995 5e-05
2
 0.999999 1e-06
2
 0.9995 0.0005
2
 0.99989 0.00011
2
 0.9999 0.0001
2
 0.997 0.003
2
 0.9999 0.0001
2
 0.99995 5e-05
2
 0.999999 1e-06
2
 0.9975 0.0025
2
 0.9999 0.0001
2
 0.9995 0.0005
2
 0.99997 3e-05
2
 0.9999 0.0001
2
 0.9999 0.0001
2
 0.99999 1e-05
2
 0.9999 0.0001
2
 0.99996 4e-05
2
 0.9995 0.0005
2
 0.99997 3e-05
2
 0.9999 0.0001
2
 0.9995 0.0005
2
 0.99996 4e-05
2
 0.9998 0.0002
2
 0.9994 0.0006
2
 0.9999 0.0001
2
 0.99997 3e-05
2
 0.99998 2e-05
2
 0.9999 0.0001
2
 0.99996 4e-05
2
 0.99993 7e-05
1
 1

